0 179466 
1 174906 
2 173368 
3 172392 
4 172202 
5 170590 
6 170552 
7 166204 
8 164772 
9 162860 
10 162830 
11 161106 
12 160022 
13 157502 
14 156390 
15 155902 
16 155278 
17 154340 
18 150860 
19 149180 
20 148212 
21 147630 
22 144870 
23 144870 

